# Solution for model F-JSSP-SDST
# Objective value = 80
B0(12) 0
B1(12) 1
B2(10) 0
B3(10) 1
B4(11) 1
B5(11) 0
B6(9) 1
B7(9) 0
B8(0) 0
B9(0) 0
B10(4) 0
B11(4) 0
B12(0) 0
B13(0) 0
B14(4) 1
B15(4) 0
B16(0) 0
B17(0) 0
B18(0) 0
B19(0) 0
B20(0) 0
B21(0) 0
B22(0) 0
B23(0) 0
I24(12) 0
I25(12) 8
I26(13) 0
I27(13) 48
I28(12) 0
I29(12) 0
I30(13) 49
I31(13) 0
I32(1) 80
B33(2) 0
B34(2) 1
B35(4) 0
B36(4) 1
B37(2) 1
B38(2) 0
B39(4) 1
B40(4) 0
